Selected objective sense:  MINIMIZE
Selected objective  name:  OBJ
Selected RHS        name:  RHS1
Selected bound      name:  BND1
CPXPARAM_Preprocessing_Presolve                  0
CPXPARAM_LPMethod                                4
CPXPARAM_Threads                                 1
CPXPARAM_SolutionType                            2
CPXPARAM_TimeLimit                               3600
Tried aggregator 0 times.
Reduced presolve eliminated 3544 rows and 3544 columns.
Reduced LP has 29272 rows, 221880 columns, and 9616097 nonzeros.
Presolve time = 2.18 sec. (1054.59 ticks)
Parallel mode: none, using 1 thread for barrier
Number of nonzeros in lower triangle of A*A' = 1325688
Using Approximate Minimum Degree ordering
Total time for automatic ordering = 0.37 sec. (684.03 ticks)
Summary statistics for Cholesky factor:
  Rows in Factor            = 29272
  Integer space required    = 1352008
  Total non-zeros in factor = 1355663
  Total FP ops to factor    = 63750699
 Itn      Primal Obj        Dual Obj  Prim Inf Upper Inf  Dual Inf Inf Ratio
   0   1.2589389e+09  -7.9483069e+07  5.90e+09  0.00e+00  1.42e+07  1.00e+00
   1   2.8898060e+08  -2.5839040e+07  1.06e+09  5.13e-11  9.29e+06  1.76e-03
   2   2.5042901e+08  -4.5374722e+07  9.43e+08  1.51e-10  3.68e+06  1.53e-03
   3   1.2310157e+08  -4.5045174e+07  5.01e+08  1.03e-10  3.63e+06  1.35e-03
   4   4.9458399e+07  -1.4926500e+07  2.00e+08  2.31e-10  1.23e+06  5.29e-04
   5   4.2965480e+06  -1.2976852e+07  2.09e+07  9.17e-11  1.06e+06  6.58e-04
   6   2.0985428e+06  -1.1120485e+07  9.67e+06  3.79e-11  9.11e+05  6.84e-04
   7   1.7183931e+06  -1.1112538e+07  8.35e+06  8.76e-11  9.10e+05  7.70e-04
   8   4.4103023e+05  -4.3832027e+06  2.22e+06  1.02e-10  3.58e+05  2.58e-03
   9   1.6918196e+05  -2.1132986e+06  5.28e+05  1.31e-10  1.76e+05  6.95e-03
  10   9.9812442e+04  -2.1063538e+05  1.79e+04  8.20e-11  2.45e+04  6.13e-02
  11   9.7666560e+04   4.8454831e+04  2.56e+02  5.89e-11  3.91e+03  4.13e-01
  12   9.7428154e+04   8.0457869e+04  1.68e+02  7.64e-11  1.33e+03  2.93e+00
  13   9.6887176e+04   9.1716446e+04  6.91e+01  6.46e-11  3.98e+02  1.66e+01
  14   9.6557750e+04   9.3376406e+04  4.59e+01  7.37e-11  2.40e+02  3.18e+01
  15   9.6405646e+04   9.4510877e+04  3.27e+01  7.91e-11  1.37e+02  6.42e+01
  16   9.6315654e+04   9.5395143e+04  2.74e+01  6.26e-11  4.68e+01  2.65e+02
  17   9.6248083e+04   9.5522275e+04  2.41e+01  6.09e-11  3.03e+01  4.02e+02
  18   9.6172581e+04   9.5625597e+04  2.04e+01  1.59e-10  1.66e+01  6.75e+02
  19   9.6114728e+04   9.5698724e+04  1.77e+01  2.19e-10  6.20e+00  1.32e+03
  20   9.6111778e+04   9.5707846e+04  1.75e+01  1.08e-10  5.00e+00  1.46e+03
  21   9.6101561e+04   9.5728350e+04  1.70e+01  1.01e-10  2.48e+00  1.89e+03
  22   9.6089319e+04   9.5740767e+04  1.64e+01  9.18e-11  1.41e+00  2.16e+03
  23   9.6050520e+04   9.5749774e+04  1.44e+01  1.78e-10  1.08e+00  2.45e+03
  24   9.6011196e+04   9.5762324e+04  1.23e+01  1.07e-10  5.86e-01  2.83e+03
  25   9.6002960e+04   9.5770079e+04  1.19e+01  1.15e-10  3.81e-01  3.13e+03
  26   9.5952703e+04   9.5775960e+04  8.98e+00  1.64e-10  2.96e-01  3.64e+03
  27   9.5916233e+04   9.5785637e+04  6.91e+00  7.31e-11  1.38e-01  4.54e+03
  28   9.5914900e+04   9.5792136e+04  6.83e+00  7.62e-11  7.77e-02  5.65e+03
  29   9.5906503e+04   9.5796359e+04  6.34e+00  9.23e-11  2.88e-02  6.95e+03
  30   9.5901262e+04   9.5798716e+04  6.03e+00  8.52e-11  7.19e-03  8.11e+03
  31   9.5874742e+04   9.5800105e+04  4.43e+00  1.28e-10  2.90e-03  9.24e+03
  32   9.5859840e+04   9.5803997e+04  3.48e+00  2.31e-10  8.87e-04  1.58e+04
  33   9.5858661e+04   9.5804297e+04  3.40e+00  9.08e-11  2.22e-04  1.60e+04
  34   9.5842879e+04   9.5804486e+04  2.40e+00  1.19e-10  1.45e-04  1.62e+04
  35   9.5842360e+04   9.5805917e+04  2.37e+00  1.64e-10  3.61e-05  2.33e+04
  36   9.5835770e+04   9.5806274e+04  1.92e+00  1.78e-10  2.66e-05  2.74e+04
  37   9.5830428e+04   9.5806561e+04  1.57e+00  8.96e-11  8.23e-06  3.00e+04
  38   9.5825530e+04   9.5807003e+04  1.24e+00  2.17e-10  2.18e-06  3.73e+04
  39   9.5823393e+04   9.5807338e+04  1.09e+00  1.26e-10  5.45e-07  4.83e+04
  40   9.5822889e+04   9.5807444e+04  1.06e+00  1.11e-10  2.93e-07  5.26e+04
  41   9.5821944e+04   9.5807489e+04  9.94e-01  1.56e-10  1.92e-07  5.49e+04
  42   9.5819621e+04   9.5807611e+04  8.32e-01  2.19e-10  4.83e-08  6.19e+04
  43   9.5818894e+04   9.5807690e+04  7.81e-01  2.49e-10  2.62e-08  6.91e+04
  44   9.5815371e+04   9.5807710e+04  5.32e-01  9.75e-11  2.23e-08  7.09e+04
  45   9.5815223e+04   9.5807899e+04  5.21e-01  1.69e-10  1.03e-08  9.84e+04
  46   9.5815200e+04   9.5807919e+04  5.20e-01  1.31e-10  8.64e-09  1.03e+05
  47   9.5815180e+04   9.5807918e+04  5.18e-01  1.70e-10  8.34e-09  1.04e+05
  48   9.5813773e+04   9.5807954e+04  4.16e-01  1.32e-10  5.66e-09  1.11e+05
  49   9.5813745e+04   9.5807956e+04  4.14e-01  2.11e-10  5.51e-09  1.12e+05
  50   9.5813426e+04   9.5808004e+04  3.91e-01  1.72e-10  3.83e-09  1.27e+05
  51   9.5813365e+04   9.5808008e+04  3.86e-01  2.46e-10  3.50e-09  1.29e+05
  52   9.5813356e+04   9.5808009e+04  3.86e-01  3.82e-10  3.59e-09  1.29e+05
  53   9.5812890e+04   9.5808040e+04  3.51e-01  3.47e-10  2.52e-09  1.42e+05
  54   9.5812876e+04   9.5808105e+04  3.50e-01  3.63e-10  7.91e-10  1.79e+05
  55   9.5812876e+04   9.5808106e+04  3.50e-01  4.12e-10  8.42e-10  1.79e+05
  56   9.5812496e+04   9.5808144e+04  3.22e-01  4.35e-10  5.99e-10  2.22e+05
  57   9.5812472e+04   9.5808140e+04  3.20e-01  3.96e-10  5.45e-10  2.08e+05
  58   9.5812240e+04   9.5808138e+04  3.03e-01  2.99e-10  3.02e-10  2.07e+05
  59   9.5812222e+04   9.5808140e+04  3.02e-01  3.46e-10  3.01e-10  2.08e+05
  60   9.5810792e+04   9.5808145e+04  1.96e-01  3.55e-10  2.65e-10  2.13e+05
  61   9.5810243e+04   9.5808211e+04  1.54e-01  3.92e-10  2.84e-10  3.38e+05
  62   9.5810186e+04   9.5808215e+04  1.49e-01  2.81e-10  3.22e-10  3.52e+05
  63   9.5810174e+04   9.5808223e+04  1.48e-01  3.54e-10  3.37e-10  3.80e+05
  64   9.5810144e+04   9.5808224e+04  1.46e-01  4.76e-10  3.24e-10  3.84e+05
  65   9.5809949e+04   9.5808240e+04  1.31e-01  1.80e-10  2.76e-10  4.53e+05
  66   9.5809948e+04   9.5808240e+04  1.31e-01  1.71e-10  3.34e-10  4.53e+05
  67   9.5809668e+04   9.5808244e+04  1.09e-01  1.88e-10  2.26e-10  4.78e+05
  68   9.5809423e+04   9.5808257e+04  9.02e-02  4.78e-10  3.30e-10  5.68e+05
  69   9.5809389e+04   9.5808266e+04  8.75e-02  1.78e-10  2.34e-10  6.79e+05
  70   9.5808949e+04   9.5808272e+04  5.29e-02  3.03e-10  2.52e-10  7.50e+05
  71   9.5808862e+04   9.5808281e+04  4.57e-02  8.41e-11  2.44e-10  9.40e+05
  72   9.5808679e+04   9.5808292e+04  3.09e-02  1.50e-10  2.96e-10  1.33e+06
  73   9.5808649e+04   9.5808295e+04  2.84e-02  1.22e-10  2.56e-10  1.55e+06
  74   9.5808586e+04   9.5808301e+04  2.32e-02  2.09e-10  2.44e-10  2.16e+06
  75   9.5808519e+04   9.5808308e+04  1.75e-02  1.12e-10  3.13e-10  3.85e+06
  76   9.5808503e+04   9.5808308e+04  1.62e-02  2.54e-10  2.70e-10  4.01e+06
  77   9.5808452e+04   9.5808309e+04  1.19e-02  1.15e-10  2.52e-10  4.38e+06
  78   9.5808427e+04   9.5808311e+04  9.73e-03  2.10e-10  2.74e-10  5.46e+06
  79   9.5808388e+04   9.5808313e+04  6.40e-03  6.57e-11  2.63e-10  8.75e+06
  80   9.5808369e+04   9.5808314e+04  4.69e-03  9.74e-11  2.75e-10  1.44e+07
  81   9.5808360e+04   9.5808314e+04  3.90e-03  1.37e-10  2.64e-10  1.56e+07
  82   9.5808328e+04   9.5808315e+04  1.17e-03  4.26e-11  2.71e-10  1.97e+07
  83   9.5808321e+04   9.5808315e+04  5.59e-04  5.21e-11  3.00e-10  3.36e+07
  84   9.5808320e+04   9.5808316e+04  4.05e-04  7.37e-11  3.03e-10  5.26e+07
  85   9.5808318e+04   9.5808316e+04  1.53e-04  6.50e-11  3.29e-10  1.05e+08
Barrier time = 57.09 sec. (106220.79 ticks)

Total time on 1 threads = 57.09 sec. (106220.79 ticks)
Solve time: 57.085906053
Barrier iterations: 85
